(set-info :status unknown)
(declare-fun C2 () (_ BitVec 61))
(declare-fun %X () (_ BitVec 61))
(declare-fun C1 () (_ BitVec 61))
(assert
 (let ((?x10163 (ite (bvsge %X C2) (_ bv1 1) (_ bv0 1))))
 (let ((?x7496 (ite (bvslt %X C1) (_ bv1 1) (_ bv0 1))))
 (let (($x8889 (and (distinct (bvor ?x7496 ?x10163) (ite (bvsgt %X (bvsub C2 (_ bv1 61))) (_ bv1 1) (_ bv0 1))) true)))
 (and (bvsle C1 C2) (and (distinct C1 C2) true) (= C1 (bvshl (_ bv1 61) (bvsub (_ bv61 61) (_ bv1 61)))) $x8889)))))
(check-sat)
